
  24    0


   0  12 2 3 4 5 6 7 9 10 20 21 22 23 
   1   5 19 16 15 13 8 
   3   4 18 17 13 11 
   2   3 16 14 11 
   6   3 15 13 12 
   8   2 12 11 
   8   2 12 11 
  10   1 11 
   5   1 14 
   7   1 11 
   5   1 24
   8   1 24
   4   1 24
   3   1 24
   7   1 24
   9   1 24
  10   1 24
   3   1 24
   3   1 24
   3   1 24
   5   1 24
   9   1 24
   3   1 24
   0   0 
